# Find energy per atom
# Modified for MM5015 by Anand Kanjarla & Jatin Mandawat

# ---------- Initialize Simulation --------------------- 
clear 
log         EnergyAtom.in.log
units metal 
dimension 3 
boundary p p p 
atom_style atomic 
variable latparam equal 3.615

# ---------- Create Atoms --------------------- 
lattice 	fcc ${latparam}
region	whole block 0 10 0 10 0 10 units lattice
create_box   1 whole 
create_atoms 1 region whole

# ---------- Define Interatomic Potential --------------------- 
pair_style eam/alloy 
pair_coeff * * Cu_mishin1.eam.alloy Cu

compute csym all centro/atom fcc
compute eng all pe/atom 
compute eatoms all reduce sum c_eng 

 # ----------- EQUILIBRATION --------------------
#write_dump all custom dump.img_pre_equil.cfg mass type xs ys zs
#reset_timestep	0
#timestep 0.001
#velocity all create 300 12345 mom yes rot no
#fix 2 all npt temp 300 300 0.01 iso 0 0 1 drag 1 

#thermo 1000 
#thermo_style custom step temp pe lx ly lz press pxx pyy pzz c_eatoms 
#dump 5 all cfg 1000 dump.equal_*.cfg mass type xs ys zs c_csym c_eng fx fy fz
#dump_modify     5 element Ni

# Run for at least 10 picosecond (assuming 1 fs timestep)
#write_dump all custom dump.img_post_equil.cfg mass type xs ys zs

#run 20000
#unfix 2
#write_dump all custom dump.img_post_equil.cfg mass type xs ys zs 
#print "test1"

# ---------- Run 0 --------------------- 
compute engperatom all pe/atom 
 
# ---------- Run 0 --------------------- 
thermo 1
thermo_style custom step temp pe etotal
dump 1 all custom 1 dump.atom.* id x y z c_engperatom
run 0

variable natoms equal "count(all)" 
variable teng equal "pe"
variable ecoh equal "v_teng/v_natoms"

print "Total energy (eV) = ${teng};"
print "Number of atoms = ${natoms};"
print "Cohesive energy (eV) = ${ecoh};"
print "%% ecoh = ${ecoh};"

print "BAZINGAA" 
