# Find energy per atom
# Modified for MM5015 by Anand Kanjarla & Jatin Mandawat

# # ---------- Initialize Simulation --------------------- 
clear 
units metal 
dimension 3 
boundary p p p 
atom_style atomic 

 # ---------- Create Atomistic Structure --------------------- 
lattice fcc 4.05 
region whole block -5 5 -5 5 -5 5 units lattice 
create_box 2 whole 
region upper block INF INF 0 5 INF INF units lattice 

lattice fcc 4.05 orient x 0 0 1 orient y  361 -120 0 orient z 120 361 0

 create_atoms 1 region upper 
region lower block INF INF -5 0.000000 INF INF units lattice 
lattice fcc 4.05 orient x 0 0 1 orient y  361 -120 0 orient z 120 361 0

 create_atoms 2 region lower 
group upper type 1 
group lower type 2  
replicate 1 1 1 

 # ---------- Define Interatomic Potential --------------------- 
pair_style eam/alloy 
pair_coeff * * Al99.eam.alloy Al Al
neighbor 2.0 bin 
neigh_modify delay 10 check yes 

 # ---------- Displace atoms and delete overlapping atoms --------------------- 
displace_atoms upper move 0 0 0 units lattice 
delete_atoms overlap 0.35 lower upper 


compute csym all centro/atom fcc
compute eng all pe/atom 
compute eatoms all reduce sum c_eng 

# ---------- Run 0 --------------------- 
compute engperatom all pe/atom 
 
# ---------- Run 0 --------------------- 
thermo 1
thermo_style custom step temp pe etotal
dump 1 all custom 1 dump.atom.* id x y z c_engperatom
run 0

variable natoms equal "count(all)" 
variable teng equal "pe"
variable ecoh equal "v_teng/v_natoms"

print "Total energy (eV) = ${teng};"
print "Number of atoms = ${natoms};"
print "Cohesive energy (eV) = ${ecoh};"
print "%% ecoh = ${ecoh};"

print "BAZINGAA" 
